c Result of efficient AIG-to-CNF conversion using package CNF
p cnf 684 2521
2 652 3 -4 0
2 652 3 -42 0
-2 -652 0
-2 -3 0
-2 4 42 0
-3 653 654 0
3 -653 0
3 -654 0
-4 -5 36 0
-4 652 23 0
-4 652 -5 0
-4 23 36 0
4 -652 -36 0
4 5 -23 0
5 -6 8 10 18 0
-5 -18 0
-5 6 0
-5 -10 0
-5 -8 0
6 681 -7 0
-6 -681 0
-6 7 0
7 -620 682 -683 0
7 -621 682 683 0
-7 -682 0
-7 620 -683 0
-7 621 683 0
-8 670 9 0
8 -670 0
8 -9 0
-9 679 680 0
9 -679 0
9 -680 0
-10 11 14 16 0
10 -11 0
10 -14 0
10 -16 0
-11 666 12 13 0
11 -13 0
11 -12 0
11 -666 0
-12 667 668 669 0
12 -667 0
12 -669 0
12 -668 0
-13 664 665 0
13 -664 0
13 -665 0
-14 652 657 3 15 0
14 -652 0
14 -15 0
14 -3 0
14 -657 0
-15 655 656 0
15 -655 0
15 -656 0
-16 658 659 17 0
16 -17 0
16 -659 0
16 -658 0
-17 660 661 662 663 0
17 -663 0
17 -662 0
17 -660 0
17 -661 0
-18 671 19 20 0
18 -20 0
18 -19 0
18 -671 0
-19 672 673 0
19 -672 0
19 -673 0
-20 21 22 0
20 -21 0
20 -22 0
-21 674 675 0
21 -674 0
21 -675 0
-22 676 677 678 0
22 -676 0
22 -678 0
22 -677 0
-23 -24 0
-23 33 34 0
-23 683 33 0
23 24 -33 0
23 -683 24 -34 0
-24 25 20 26 30 0
24 -30 0
24 -25 0
24 -26 0
24 -20 0
-25 666 13 0
25 -666 0
25 -13 0
-26 9 27 28 29 0
26 -29 0
26 -9 0
26 -28 0
26 -27 0
-27 653 654 15 0
27 -15 0
27 -654 0
27 -653 0
-28 659 660 0
28 -659 0
28 -660 0
-29 657 658 0
29 -657 0
29 -658 0
-30 12 31 19 32 0
30 -32 0
30 -12 0
30 -19 0
30 -31 0
-31 661 662 663 0
31 -661 0
31 -663 0
31 -662 0
-32 670 671 0
32 -670 0
32 -671 0
33 -621 681 682 683 0
-33 -683 0
-33 -682 0
-33 621 0
-33 -681 0
34 681 -35 0
-34 -681 0
-34 35 0
35 -620 682 -683 0
35 -622 682 683 0
-35 -682 0
-35 620 -683 0
-35 622 683 0
36 18 27 37 -39 0
-36 39 0
-36 -18 0
-36 -37 0
-36 -27 0
-37 657 658 38 0
37 -38 0
37 -658 0
37 -657 0
-38 659 660 661 0
38 -659 0
38 -661 0
38 -660 0
39 670 9 -40 41 0
-39 -670 0
-39 -41 0
-39 40 0
-39 -9 0
40 -620 681 682 683 0
-40 -683 0
-40 -682 0
-40 620 0
-40 -681 0
-41 662 663 11 0
41 -11 0
41 -663 0
41 -662 0
-42 43 161 186 327 0
42 -43 0
42 -327 0
42 -186 0
42 -161 0
43 -680 44 -115 0
43 680 44 -56 0
-43 -44 0
-43 -680 115 0
-43 680 56 0
44 45 -48 0
-44 -45 0
-44 48 0
-45 10 22 46 0
45 -10 0
45 -22 0
45 -46 0
-46 32 47 0
46 -32 0
46 -47 0
-47 679 19 21 0
47 -21 0
47 -19 0
47 -679 0
48 -680 -6 0
48 680 -49 0
-48 680 49 0
-48 -680 6 0
49 681 -50 0
49 -681 -53 0
-49 -681 53 0
-49 681 50 0
50 -682 -52 0
50 682 -51 0
-50 682 51 0
-50 -682 52 0
-51 629 683 0
-51 628 -683 0
51 -629 683 0
51 -628 -683 0
-52 627 683 0
-52 626 -683 0
52 -627 683 0
52 -626 -683 0
53 -682 -55 0
53 682 -54 0
-53 682 54 0
-53 -682 55 0
-54 625 683 0
-54 624 -683 0
54 -625 683 0
54 -624 -683 0
-55 623 683 0
-55 622 -683 0
55 -623 683 0
55 -622 -683 0
56 681 -57 0
56 -681 -84 0
-56 -681 84 0
-56 681 57 0
57 682 -58 0
57 -682 -70 0
-57 -682 70 0
-57 682 58 0
58 683 -59 0
58 -683 -65 0
-58 -683 65 0
-58 683 59 0
59 24 -60 0
-59 -24 0
-59 60 0
60 681 -62 0
60 -681 682 -61 0
-60 -681 -682 0
-60 681 62 0
-60 -681 61 0
61 -621 683 0
-61 621 0
-61 -683 0
62 -682 -64 0
62 682 -63 0
-62 682 63 0
-62 -682 64 0
-63 629 683 0
-63 627 -683 0
63 -629 683 0
63 -627 -683 0
-64 625 683 0
-64 623 -683 0
64 -625 683 0
64 -623 -683 0
65 24 -66 0
-65 -24 0
-65 66 0
66 -681 -35 0
66 681 -67 0
-66 681 67 0
-66 -681 35 0
67 -682 -69 0
67 682 -68 0
-67 682 68 0
-67 -682 69 0
-68 630 683 0
-68 628 -683 0
68 -630 683 0
68 -628 -683 0
-69 626 683 0
-69 624 -683 0
69 -626 683 0
69 -624 -683 0
70 683 -71 0
70 -683 -77 0
-70 -683 77 0
-70 683 71 0
71 24 -72 0
-71 -24 0
-71 72 0
72 681 -73 0
72 -681 -76 0
-72 -681 76 0
-72 681 73 0
73 -682 -75 0
73 682 -74 0
-73 682 74 0
-73 -682 75 0
-74 631 683 0
-74 629 -683 0
74 -631 683 0
74 -629 -683 0
-75 627 683 0
-75 625 -683 0
75 -627 683 0
75 -625 -683 0
76 -621 682 -683 0
76 -623 682 683 0
-76 -682 0
-76 621 -683 0
-76 623 683 0
77 24 -78 0
-77 -24 0
-77 78 0
78 681 -79 0
78 -681 -82 0
-78 -681 82 0
-78 681 79 0
79 -682 -81 0
79 682 -80 0
-79 682 80 0
-79 -682 81 0
-80 632 683 0
-80 630 -683 0
80 -632 683 0
80 -630 -683 0
-81 628 683 0
-81 626 -683 0
81 -628 683 0
81 -626 -683 0
-82 620 -682 0
-82 682 83 0
-82 -682 -683 0
82 682 -83 0
82 -620 -682 683 0
-83 624 683 0
-83 622 -683 0
83 -624 683 0
83 -622 -683 0
84 682 -85 0
84 -682 -97 0
-84 -682 97 0
-84 682 85 0
85 683 -86 0
85 -683 -91 0
-85 -683 91 0
-85 683 86 0
86 24 -87 0
-86 -24 0
-86 87 0
87 681 -88 0
87 -681 -90 0
-87 -681 90 0
-87 681 88 0
88 682 -89 0
88 -682 -63 0
-88 -682 63 0
-88 682 89 0
-89 633 683 0
-89 631 -683 0
89 -633 683 0
89 -631 -683 0
90 682 -64 0
90 -621 -682 683 0
-90 621 -682 0
-90 682 64 0
-90 -682 -683 0
91 24 -92 0
-91 -24 0
-91 92 0
92 681 -93 0
92 -681 -95 0
-92 -681 95 0
-92 681 93 0
93 682 -94 0
93 -682 -68 0
-93 -682 68 0
-93 682 94 0
-94 634 683 0
-94 632 -683 0
94 -634 683 0
94 -632 -683 0
95 682 -69 0
95 -682 -96 0
-95 -682 96 0
-95 682 69 0
-96 622 683 0
-96 620 -683 0
96 -622 683 0
96 -620 -683 0
97 683 -98 0
97 -683 -104 0
-97 -683 104 0
-97 683 98 0
98 24 -99 0
-98 -24 0
-98 99 0
99 681 -100 0
99 -681 -102 0
-99 -681 102 0
-99 681 100 0
100 682 -101 0
100 -682 -74 0
-100 -682 74 0
-100 682 101 0
-101 635 683 0
-101 633 -683 0
101 -635 683 0
101 -633 -683 0
102 -682 -103 0
102 682 -75 0
-102 682 75 0
-102 -682 103 0
-103 623 683 0
-103 621 -683 0
103 -623 683 0
103 -621 -683 0
104 -106 110 0
104 -105 110 0
-104 -110 0
-104 105 106 0
105 -680 -40 0
-105 680 0
-105 40 0
106 680 -681 -109 0
106 680 681 -107 0
-106 -680 0
-106 -681 109 0
-106 681 107 0
107 682 -108 0
107 -682 -80 0
-107 -682 80 0
-107 682 108 0
-108 636 683 0
-108 634 -683 0
108 -636 683 0
108 -634 -683 0
109 -682 -83 0
109 682 -81 0
-109 682 81 0
-109 -682 83 0
-110 658 659 32 111 0
110 -658 0
110 -111 0
110 -32 0
110 -659 0
-111 3 13 112 113 0
111 -113 0
111 -3 0
111 -112 0
111 -13 0
-112 657 15 0
112 -657 0
112 -15 0
-113 17 22 47 114 0
113 -114 0
113 -17 0
113 -47 0
113 -22 0
-114 666 12 0
114 -666 0
114 -12 0
115 681 -116 0
115 -681 -137 0
-115 -681 137 0
-115 681 116 0
116 682 -117 0
116 -682 -126 0
-116 -682 126 0
-116 682 117 0
117 683 -118 0
117 -683 -122 0
-117 -683 122 0
-117 683 118 0
118 680 110 -119 0
118 -680 -33 110 0
-118 -110 0
-118 680 119 0
-118 -680 33 0
-119 681 120 0
-119 -681 62 0
119 -681 -62 0
119 681 -120 0
120 682 -121 0
120 -682 -89 0
-120 -682 89 0
-120 682 121 0
-121 637 683 0
-121 635 -683 0
121 -637 683 0
121 -635 -683 0
122 680 110 -123 0
122 -680 -34 110 0
-122 -110 0
-122 680 123 0
-122 -680 34 0
-123 681 124 0
-123 -681 67 0
123 -681 -67 0
123 681 -124 0
124 682 -125 0
124 -682 -94 0
-124 -682 94 0
-124 682 125 0
-125 638 683 0
-125 636 -683 0
125 -638 683 0
125 -636 -683 0
126 683 -127 0
126 -683 -132 0
-126 -683 132 0
-126 683 127 0
127 -680 110 -131 0
127 680 110 -128 0
-127 -110 0
-127 -680 131 0
-127 680 128 0
-128 681 129 0
-128 -681 73 0
128 -681 -73 0
128 681 -129 0
129 682 -130 0
129 -682 -101 0
-129 -682 101 0
-129 682 130 0
-130 639 683 0
-130 637 -683 0
130 -639 683 0
130 -637 -683 0
131 681 -76 0
-131 -681 0
-131 76 0
132 -680 110 -136 0
132 680 110 -133 0
-132 -110 0
-132 -680 136 0
-132 680 133 0
-133 681 134 0
-133 -681 79 0
133 -681 -79 0
133 681 -134 0
134 682 -135 0
134 -682 -108 0
-134 -682 108 0
-134 682 135 0
-135 640 683 0
-135 638 -683 0
135 -640 683 0
135 -638 -683 0
136 681 -82 0
-136 -681 0
-136 82 0
137 682 -138 0
137 -682 -149 0
-137 -682 149 0
-137 682 138 0
138 683 -139 0
138 -683 -144 0
-138 -683 144 0
-138 683 139 0
139 -680 110 -143 0
139 680 110 -140 0
-139 -110 0
-139 -680 143 0
-139 680 140 0
-140 681 141 0
-140 -681 88 0
140 -681 -88 0
140 681 -141 0
141 682 -142 0
141 -682 -121 0
-141 -682 121 0
-141 682 142 0
-142 641 683 0
-142 639 -683 0
142 -641 683 0
142 -639 -683 0
143 681 -90 0
-143 -681 0
-143 90 0
144 -680 110 -148 0
144 680 110 -145 0
-144 -110 0
-144 -680 148 0
-144 680 145 0
-145 681 146 0
-145 -681 93 0
145 -681 -93 0
145 681 -146 0
146 682 -147 0
146 -682 -125 0
-146 -682 125 0
-146 682 147 0
-147 642 683 0
-147 640 -683 0
147 -642 683 0
147 -640 -683 0
148 681 -95 0
-148 -681 0
-148 95 0
149 683 -150 0
149 -683 -155 0
-149 -683 155 0
-149 683 150 0
150 -680 110 -154 0
150 680 110 -151 0
-150 -110 0
-150 -680 154 0
-150 680 151 0
-151 681 152 0
-151 -681 100 0
151 -681 -100 0
151 681 -152 0
152 682 -153 0
152 -682 -130 0
-152 -682 130 0
-152 682 153 0
-153 643 683 0
-153 641 -683 0
153 -643 683 0
153 -641 -683 0
154 681 -102 0
-154 -681 0
-154 102 0
155 680 110 -156 0
155 -680 110 -159 0
-155 -110 0
-155 -680 159 0
-155 680 156 0
-156 -681 107 0
-156 681 157 0
156 -681 -107 0
156 681 -157 0
-157 -682 135 0
-157 682 158 0
157 682 -158 0
157 -682 -135 0
-158 644 683 0
-158 642 -683 0
158 -644 683 0
158 -642 -683 0
-159 681 109 0
-159 -681 160 0
159 -681 -160 0
159 681 -109 0
160 -620 682 683 0
-160 620 0
-160 -683 0
-160 -682 0
161 -680 162 -179 0
161 680 162 -171 0
-161 -162 0
-161 -680 179 0
-161 680 171 0
162 45 -163 0
-162 -45 0
-162 163 0
-163 680 164 0
-163 -680 40 0
163 -680 -40 0
163 680 -164 0
164 681 -165 0
164 -681 -168 0
-164 -681 168 0
-164 681 165 0
165 -682 -167 0
165 682 -166 0
-165 682 166 0
-165 -682 167 0
-166 628 683 0
-166 627 -683 0
166 -628 683 0
166 -627 -683 0
-167 626 683 0
-167 625 -683 0
167 -626 683 0
167 -625 -683 0
168 -682 -170 0
168 682 -169 0
-168 682 169 0
-168 -682 170 0
-169 624 683 0
-169 623 -683 0
169 -624 683 0
169 -623 -683 0
-170 622 683 0
-170 621 -683 0
170 -622 683 0
170 -621 -683 0
171 681 -172 0
171 -681 -176 0
-171 -681 176 0
-171 681 172 0
172 682 -173 0
172 -682 -175 0
-172 -682 175 0
-172 682 173 0
173 -683 -59 0
173 683 -174 0
-173 683 174 0
-173 -683 59 0
174 24 -159 0
-174 -24 0
-174 159 0
175 683 -65 0
175 -683 -71 0
-175 -683 71 0
-175 683 65 0
176 682 -177 0
176 -682 -178 0
-176 -682 178 0
-176 682 177 0
177 683 -77 0
177 -683 -86 0
-177 -683 86 0
-177 683 77 0
178 683 -91 0
178 -683 -98 0
-178 -683 98 0
-178 683 91 0
179 681 -180 0
179 -681 -183 0
-179 -681 183 0
-179 681 180 0
180 682 -181 0
180 -682 -182 0
-180 -682 182 0
-180 682 181 0
181 683 -104 0
181 -683 -118 0
-181 -683 118 0
-181 683 104 0
182 683 -122 0
182 -683 -127 0
-182 -683 127 0
-182 683 122 0
183 682 -184 0
183 -682 -185 0
-183 -682 185 0
-183 682 184 0
184 683 -132 0
184 -683 -139 0
-184 -683 139 0
-184 683 132 0
185 683 -144 0
185 -683 -150 0
-185 -683 150 0
-185 683 144 0
-186 187 241 248 298 0
186 -298 0
186 -187 0
186 -248 0
186 -241 0
-187 188 213 234 0
-187 188 213 -230 0
187 -188 0
187 -213 0
187 230 -234 0
188 189 -212 0
188 -680 189 -196 0
-188 -189 0
-188 196 212 0
-188 680 212 0
189 45 -190 0
-189 -45 0
-189 190 0
190 680 -191 0
190 -680 -195 0
-190 -680 195 0
-190 680 191 0
191 -681 -165 0
191 681 -192 0
-191 681 192 0
-191 -681 165 0
192 -682 -194 0
192 682 -193 0
-192 682 193 0
-192 -682 194 0
-193 632 683 0
-193 631 -683 0
193 -632 683 0
193 -631 -683 0
-194 630 683 0
-194 629 -683 0
194 -630 683 0
194 -629 -683 0
-195 681 168 0
-195 -681 160 0
195 -681 -160 0
195 681 -168 0
196 681 -183 0
196 -681 -197 0
-196 -681 197 0
-196 681 183 0
197 682 -198 0
197 -682 -203 0
-197 -682 203 0
-197 682 198 0
198 683 -155 0
198 -683 -199 0
-198 -683 199 0
-198 683 155 0
199 680 110 -200 0
199 -680 -60 110 0
-199 -110 0
-199 680 200 0
-199 -680 60 0
-200 -681 120 0
-200 681 201 0
200 -681 -120 0
200 681 -201 0
-201 -682 142 0
-201 682 202 0
201 682 -202 0
201 -682 -142 0
-202 645 683 0
-202 643 -683 0
202 -645 683 0
202 -643 -683 0
203 683 -204 0
203 -683 -208 0
-203 -683 208 0
-203 683 204 0
204 680 110 -205 0
204 -680 -66 110 0
-204 -110 0
-204 680 205 0
-204 -680 66 0
-205 -681 124 0
-205 681 206 0
205 -681 -124 0
205 681 -206 0
-206 -682 147 0
-206 682 207 0
206 682 -207 0
206 -682 -147 0
-207 646 683 0
-207 644 -683 0
207 -646 683 0
207 -644 -683 0
208 680 110 -209 0
208 -680 -72 110 0
-208 -110 0
-208 680 209 0
-208 -680 72 0
-209 -681 129 0
-209 681 210 0
209 -681 -129 0
209 681 -210 0
-210 -682 153 0
-210 682 211 0
210 682 -211 0
210 -682 -153 0
-211 647 683 0
-211 645 -683 0
211 -647 683 0
211 -645 -683 0
212 681 -176 0
212 -681 -180 0
-212 -681 180 0
-212 681 176 0
213 214 -227 0
213 -680 214 -223 0
-213 -214 0
-213 223 227 0
-213 680 227 0
214 45 -215 0
-214 -45 0
-214 215 0
215 680 -216 0
215 -680 -220 0
-215 -680 220 0
-215 680 216 0
216 681 -217 0
216 -681 -219 0
-216 -681 219 0
-216 681 217 0
217 682 -218 0
217 -682 -51 0
-217 -682 51 0
-217 682 218 0
-218 631 683 0
-218 630 -683 0
218 -631 683 0
218 -630 -683 0
219 -682 -54 0
219 682 -52 0
-219 682 52 0
-219 -682 54 0
220 681 -221 0
-220 -681 0
-220 221 0
221 682 -55 0
221 -682 -222 0
-221 -682 222 0
-221 682 55 0
-222 621 683 0
-222 620 -683 0
222 -621 683 0
222 -620 -683 0
223 681 -224 0
223 -681 -225 0
-223 -681 225 0
-223 681 224 0
224 682 -126 0
224 -682 -138 0
-224 -682 138 0
-224 682 126 0
225 682 -149 0
225 -682 -226 0
-225 -682 226 0
-225 682 149 0
226 683 -199 0
226 -683 -204 0
-226 -683 204 0
-226 683 199 0
227 681 -228 0
227 -681 -229 0
-227 -681 229 0
-227 681 228 0
228 682 -70 0
228 -682 -85 0
-228 -682 85 0
-228 682 70 0
229 682 -97 0
229 -682 -117 0
-229 -682 117 0
-229 682 97 0
230 45 -231 0
-230 -45 0
-230 231 0
231 680 -232 0
-231 -680 0
-231 232 0
232 681 -233 0
-232 -681 0
-232 233 0
-233 620 -682 0
-233 682 170 0
-233 -682 -683 0
233 682 -170 0
233 -620 -682 683 0
234 682 -235 0
234 -682 -238 0
-234 -682 238 0
-234 682 235 0
235 683 -236 0
235 -683 -237 0
-235 -683 237 0
-235 683 236 0
236 24 -34 0
-236 -24 0
-236 34 0
237 24 -131 0
-237 -24 0
-237 131 0
238 683 -239 0
238 -683 -240 0
-238 -683 240 0
-238 683 239 0
239 24 -136 0
-239 -24 0
-239 136 0
240 24 -143 0
-240 -24 0
-240 143 0
241 242 -244 0
241 -681 -172 242 0
-241 -242 0
-241 172 244 0
-241 681 244 0
242 45 -243 0
-242 -45 0
-242 243 0
243 680 -195 0
-243 -680 0
-243 195 0
244 682 -238 0
244 -682 -245 0
-244 -682 245 0
-244 682 238 0
245 683 -246 0
245 -683 -247 0
-245 -683 247 0
-245 683 246 0
246 24 -148 0
-246 -24 0
-246 148 0
247 24 -154 0
-247 -24 0
-247 154 0
-248 249 275 286 291 0
248 -291 0
248 -286 0
248 -249 0
248 -275 0
249 250 -272 0
249 -680 250 -258 0
-249 -250 0
-249 258 272 0
-249 680 272 0
250 45 -251 0
-250 -45 0
-250 251 0
251 680 -252 0
251 -680 -256 0
-251 -680 256 0
-251 680 252 0
252 681 -253 0
252 -681 -255 0
-252 -681 255 0
-252 681 253 0
253 682 -254 0
253 -682 -193 0
-253 -682 193 0
-253 682 254 0
-254 634 683 0
-254 633 -683 0
254 -634 683 0
254 -633 -683 0
255 682 -194 0
255 -682 -166 0
-255 -682 166 0
-255 682 194 0
256 -681 -233 0
256 681 -257 0
-256 -681 233 0
-256 681 257 0
257 -682 -169 0
257 682 -167 0
-257 682 167 0
-257 -682 169 0
258 681 -259 0
258 -681 -260 0
-258 -681 260 0
-258 681 259 0
259 682 -185 0
259 -682 -198 0
-259 -682 198 0
-259 682 185 0
260 682 -203 0
260 -682 -261 0
-260 -682 261 0
-260 682 203 0
261 683 -262 0
261 -683 -267 0
-261 -683 267 0
-261 683 262 0
262 680 110 -263 0
262 -680 -78 110 0
-262 -110 0
-262 680 263 0
-262 -680 78 0
-263 -681 134 0
-263 681 264 0
263 -681 -134 0
263 681 -264 0
-264 -682 158 0
-264 682 265 266 0
264 682 -266 0
264 -682 -158 0
264 682 -265 0
265 -646 -683 0
-265 646 0
-265 683 0
266 -648 683 0
-266 648 0
-266 -683 0
267 680 110 -268 0
267 -680 -87 110 0
-267 -110 0
-267 680 268 0
-267 -680 87 0
-268 -681 141 0
-268 681 269 0
268 -681 -141 0
268 681 -269 0
-269 -682 202 0
-269 682 270 271 0
269 682 -271 0
269 -682 -202 0
269 682 -270 0
270 -647 -683 0
-270 647 0
-270 683 0
271 -649 683 0
-271 649 0
-271 -683 0
272 681 -273 0
272 -681 -274 0
-272 -681 274 0
-272 681 273 0
273 682 -178 0
273 -682 -181 0
-273 -682 181 0
-273 682 178 0
274 682 -182 0
274 -682 -184 0
-274 -682 184 0
-274 682 182 0
275 276 -285 0
275 -680 276 -282 0
-275 -276 0
-275 282 285 0
-275 680 285 0
276 45 -277 0
-276 -45 0
-276 277 0
277 680 -278 0
277 -680 -281 0
-277 -680 281 0
-277 680 278 0
278 -681 -50 0
278 681 -279 0
-278 681 279 0
-278 -681 50 0
279 682 -280 0
279 -682 -218 0
-279 -682 218 0
-279 682 280 0
-280 633 683 0
-280 632 -683 0
280 -633 683 0
280 -632 -683 0
281 -681 -7 0
281 681 -53 0
-281 681 53 0
-281 -681 7 0
282 681 -137 0
282 -681 -283 0
-282 -681 283 0
-282 681 137 0
283 682 -226 0
283 -682 -284 0
-283 -682 284 0
-283 682 226 0
284 683 -208 0
284 -683 -262 0
-284 -683 262 0
-284 683 208 0
285 681 -84 0
285 -681 -116 0
-285 -681 116 0
-285 681 84 0
286 -682 287 -290 0
286 682 287 -289 0
-286 -287 0
-286 -682 290 0
-286 682 289 0
287 45 -288 0
-287 -45 0
-287 288 0
288 680 -220 0
-288 -680 0
-288 220 0
289 683 -237 0
289 -683 -239 0
-289 -683 239 0
-289 683 237 0
290 683 -240 0
290 -683 -246 0
-290 -683 246 0
-290 683 240 0
291 292 -295 0
291 -680 292 -297 0
-291 -292 0
-291 295 297 0
-291 680 295 0
292 45 -293 0
-292 -45 0
-292 293 0
293 -680 -232 0
293 680 -294 0
-293 680 294 0
-293 -680 232 0
294 681 -255 0
294 -681 -257 0
-294 -681 257 0
-294 681 255 0
295 -681 -273 0
295 681 -296 0
-295 681 296 0
-295 -681 273 0
296 682 -175 0
296 -682 -177 0
-296 -682 177 0
-296 682 175 0
297 -681 -259 0
297 681 -274 0
-297 681 274 0
-297 -681 259 0
-298 299 304 308 323 0
298 -323 0
298 -308 0
298 -299 0
298 -304 0
299 300 -302 0
299 -681 -57 300 0
-299 -300 0
-299 57 302 0
-299 681 302 0
300 45 -301 0
-300 -45 0
-300 301 0
301 680 -281 0
-301 -680 0
-301 281 0
302 682 -290 0
302 -682 -303 0
-302 -682 303 0
-302 682 290 0
303 -683 -174 0
303 683 -247 0
-303 683 247 0
-303 -683 174 0
304 305 -307 0
304 -681 -296 305 0
-304 -305 0
-304 296 307 0
-304 681 307 0
305 45 -306 0
-305 -45 0
-305 306 0
306 680 -256 0
-306 -680 0
-306 256 0
307 -682 -173 0
307 682 -245 0
-307 682 245 0
-307 -682 173 0
308 309 -322 0
308 -680 309 -315 0
-308 -309 0
-308 315 322 0
-308 680 322 0
309 45 -310 0
-309 -45 0
-309 310 0
310 680 -311 0
310 -680 -314 0
-310 -680 314 0
-310 680 311 0
311 -681 -217 0
311 681 -312 0
-311 681 312 0
-311 -681 217 0
312 682 -313 0
312 -682 -280 0
-312 -682 280 0
-312 682 313 0
-313 635 683 0
-313 634 -683 0
313 -635 683 0
313 -634 -683 0
314 681 -219 0
314 -681 -221 0
-314 -681 221 0
-314 681 219 0
315 681 -225 0
315 -681 -316 0
-315 -681 316 0
-315 681 225 0
316 682 -284 0
316 -682 -317 0
-316 -682 317 0
-316 682 284 0
317 683 -267 0
317 -683 -318 0
-317 -683 318 0
-317 683 267 0
318 680 110 -319 0
318 -680 -92 110 0
-318 -110 0
-318 680 319 0
-318 -680 92 0
-319 681 321 0
-319 -681 146 0
-319 681 -320 0
319 -681 -146 0
319 681 320 -321 0
320 644 -682 -683 0
320 646 -682 683 0
-320 682 0
-320 -646 683 0
-320 -644 -683 0
-321 648 682 -683 0
-321 650 682 683 0
321 -682 0
321 -650 683 0
321 -648 -683 0
322 -681 -224 0
322 681 -229 0
-322 681 229 0
-322 -681 224 0
323 324 -326 0
323 -681 -228 324 0
-323 -324 0
-323 228 326 0
-323 681 326 0
324 45 -325 0
-324 -45 0
-324 325 0
325 680 -314 0
-325 -680 0
-325 314 0
326 -682 -58 0
326 682 -303 0
-326 682 303 0
-326 -682 58 0
-327 328 607 608 616 0
327 -616 0
327 -328 0
327 -608 0
327 -607 0
-328 329 540 555 577 0
328 -329 0
328 -577 0
328 -555 0
328 -540 0
329 680 -297 330 0
329 -680 330 -533 0
-329 -330 0
-329 -680 533 0
-329 680 297 0
330 680 -331 0
330 -680 -468 0
-330 -680 468 0
-330 680 331 0
331 681 -332 0
331 -681 -423 0
-331 -681 423 0
-331 681 332 0
332 682 -333 0
332 -682 -386 0
-332 -682 386 0
-332 682 333 0
333 683 -334 0
333 -683 -366 0
-333 -683 366 0
-333 683 334 0
334 679 -680 -359 0
334 679 680 -335 0
-334 -679 0
-334 -680 359 0
-334 680 335 0
335 681 -336 0
335 -681 -356 0
-335 -681 356 0
-335 681 336 0
336 682 -337 0
336 -682 -351 0
-336 -682 351 0
-336 682 337 0
337 683 -338 0
337 -683 -346 0
-337 -683 346 0
-337 683 338 0
338 679 339 -341 0
338 -231 339 -341 0
-338 341 0
-338 -339 0
-338 -679 231 0
-339 11 16 19 340 0
339 -340 0
339 -11 0
339 -19 0
339 -16 0
-340 14 20 32 0
340 -14 0
340 -20 0
340 -32 0
341 -680 -294 0
341 -679 680 0
341 680 -342 0
-341 -680 294 0
-341 679 680 342 0
342 -681 -253 0
342 681 -343 0
-342 681 343 0
-342 -681 253 0
343 -682 -345 0
343 682 -344 0
-343 682 344 0
-343 -682 345 0
-344 638 683 0
-344 637 -683 0
344 -638 683 0
344 -637 -683 0
-345 636 683 0
-345 635 -683 0
345 -636 683 0
345 -635 -683 0
346 -9 339 350 0
346 339 -347 350 0
-346 -339 0
-346 -350 0
-346 9 347 0
347 -681 -279 0
347 681 -348 0
-347 681 348 0
-347 -681 279 0
348 682 -349 0
348 -682 -313 0
-348 -682 313 0
-348 682 349 0
-349 637 683 0
-349 636 -683 0
349 -637 683 0
349 -636 -683 0
350 -679 6 0
350 -680 49 0
350 -679 -680 0
-350 679 -49 0
-350 680 -6 0
-350 679 680 0
351 -683 -309 0
351 683 -352 0
-351 683 352 0
-351 -683 309 0
352 -9 339 355 0
352 339 -353 355 0
-352 -339 0
-352 -355 0
-352 9 353 0
353 -681 -192 0
353 681 -354 0
-353 681 354 0
-353 -681 192 0
354 682 -345 0
354 -682 -254 0
-354 -682 254 0
-354 682 345 0
355 -679 40 0
355 -680 164 0
355 -679 -680 0
-355 679 -164 0
-355 680 -40 0
-355 679 680 0
356 682 -357 0
356 -682 -358 0
-356 -682 358 0
-356 682 357 0
357 683 -250 0
357 -683 -276 0
-357 -683 276 0
-357 683 250 0
358 683 -189 0
358 -683 -214 0
-358 -683 214 0
-358 683 189 0
359 681 -360 0
359 -681 -363 0
-359 -681 363 0
-359 681 360 0
360 682 -361 0
360 -682 -362 0
-360 -682 362 0
-360 682 361 0
361 -683 -44 0
361 683 -292 0
-361 683 292 0
-361 -683 44 0
362 683 -162 0
362 -683 -324 0
-362 -683 324 0
-362 683 162 0
363 682 -364 0
363 -682 -365 0
-363 -682 365 0
-363 682 364 0
364 -683 -300 0
364 683 -305 0
-364 683 305 0
-364 -683 300 0
365 683 -242 0
365 -683 -287 0
-365 -683 287 0
-365 683 242 0
366 679 -680 -379 0
366 679 680 -367 0
-366 -679 0
-366 -680 379 0
-366 680 367 0
367 681 -368 0
367 -681 -376 0
-367 -681 376 0
-367 681 368 0
368 682 -369 0
368 -682 -375 0
-368 -682 375 0
-368 682 369 0
369 -683 -338 0
369 683 -370 0
-369 683 370 0
-369 -683 338 0
370 679 339 -371 0
370 -679 -288 339 0
-370 -339 0
-370 679 371 0
-370 -679 288 0
-371 680 372 0
-371 -680 216 0
371 -680 -216 0
371 680 -372 0
372 -681 -312 0
372 681 -373 0
-372 681 373 0
-372 -681 312 0
373 682 -374 0
373 -682 -349 0
-373 -682 349 0
-373 682 374 0
-374 639 683 0
-374 638 -683 0
374 -639 683 0
374 -638 -683 0
375 683 -346 0
375 -683 -352 0
-375 -683 352 0
-375 683 346 0
376 682 -377 0
376 -682 -378 0
-376 -682 378 0
-376 682 377 0
377 -683 -250 0
377 683 -309 0
-377 683 309 0
-377 -683 250 0
378 -683 -189 0
378 683 -276 0
-378 683 276 0
-378 -683 189 0
379 681 -380 0
379 -681 -383 0
-379 -681 383 0
-379 681 380 0
380 682 -381 0
380 -682 -382 0
-380 -682 382 0
-380 682 381 0
381 683 -214 0
381 -683 -292 0
-381 -683 292 0
-381 683 214 0
382 683 -44 0
382 -683 -162 0
-382 -683 162 0
-382 683 44 0
383 682 -384 0
383 -682 -385 0
-383 -682 385 0
-383 682 384 0
384 -683 -305 0
384 683 -324 0
-384 683 324 0
-384 -683 305 0
385 -683 -242 0
385 683 -300 0
-385 683 300 0
-385 -683 242 0
386 683 -387 0
386 -683 -406 0
-386 -683 406 0
-386 683 387 0
387 679 -680 -403 0
387 679 680 -388 0
-387 -679 0
-387 -680 403 0
-387 680 388 0
388 681 -389 0
388 -681 -402 0
-388 -681 402 0
-388 681 389 0
389 -682 -337 0
389 682 -390 0
-389 682 390 0
-389 -682 337 0
390 -683 -370 0
390 683 -391 0
-390 683 391 0
-390 -683 370 0
391 679 -392 397 0
391 -243 -392 397 0
-391 -397 0
-391 392 0
-391 -679 243 0
392 657 678 32 -393 0
-392 -657 0
-392 393 0
-392 -32 0
-392 -678 0
393 -9 17 114 0
393 17 114 -394 0
-393 -114 0
-393 -17 0
-393 9 394 0
394 -681 -354 0
394 681 -395 0
-394 681 395 0
-394 -681 354 0
395 682 -396 0
395 -682 -344 0
-395 -682 344 0
-395 682 396 0
-396 640 683 0
-396 639 -683 0
396 -640 683 0
396 -639 -683 0
-397 13 398 399 401 0
397 -401 0
397 -13 0
397 -399 0
397 -398 0
-398 658 659 0
398 -658 0
398 -659 0
-399 652 653 400 0
399 -400 0
399 -653 0
399 -652 0
-400 676 677 19 21 0
400 -676 0
400 -21 0
400 -19 0
400 -677 0
-401 654 15 -191 0
-401 654 680 15 0
401 -654 0
401 -15 0
401 -680 191 0
402 682 -351 0
402 -682 -357 0
-402 -682 357 0
-402 682 351 0
403 681 -404 0
403 -681 -405 0
-403 -681 405 0
-403 681 404 0
404 682 -358 0
404 -682 -361 0
-404 -682 361 0
-404 682 358 0
405 682 -362 0
405 -682 -364 0
-405 -682 364 0
-405 682 362 0
406 679 -680 -420 0
406 679 680 -407 0
-406 -679 0
-406 -680 420 0
-406 680 407 0
407 681 -408 0
407 -681 -419 0
-407 -681 419 0
-407 681 408 0
408 -682 -369 0
408 682 -409 0
-408 682 409 0
-408 -682 369 0
409 -683 -391 0
409 683 -410 0
-409 683 410 0
-409 -683 391 0
410 680 411 -413 0
410 -278 411 -413 0
-410 413 0
-410 -411 0
-410 -680 278 0
-411 658 663 14 412 0
411 -658 0
411 -412 0
411 -14 0
411 -663 0
-412 678 32 400 0
412 -400 0
412 -32 0
412 -678 0
413 679 -414 418 0
413 -301 -414 418 0
-413 -418 0
-413 414 0
-413 -679 301 0
-414 9 415 0
414 -9 0
414 -415 0
415 -681 -348 0
415 681 -416 0
-415 681 416 0
-415 -681 348 0
416 682 -417 0
416 -682 -374 0
-416 -682 374 0
-416 682 417 0
-417 641 683 0
-417 640 -683 0
417 -641 683 0
417 -640 -683 0
-418 662 11 38 0
418 -38 0
418 -11 0
418 -662 0
419 682 -375 0
419 -682 -377 0
-419 -682 377 0
-419 682 375 0
420 681 -421 0
420 -681 -422 0
-420 -681 422 0
-420 681 421 0
421 682 -378 0
421 -682 -381 0
-421 -682 381 0
-421 682 378 0
422 682 -382 0
422 -682 -384 0
-422 -682 384 0
-422 682 382 0
423 682 -424 0
423 -682 -445 0
-423 -682 445 0
-423 682 424 0
424 683 -425 0
424 -683 -435 0
-424 -683 435 0
-424 683 425 0
425 679 -680 -434 0
425 679 680 -426 0
-425 -679 0
-425 -680 434 0
-425 680 426 0
426 -681 -336 0
426 681 -427 0
-426 681 427 0
-426 -681 336 0
427 -682 -390 0
427 682 -428 0
-427 682 428 0
-427 -682 390 0
428 -683 -410 0
428 683 -429 0
-428 683 429 0
-428 -683 410 0
429 679 339 -430 0
429 -306 339 -430 0
-429 430 0
-429 -339 0
-429 -679 306 0
430 -680 -252 0
430 -679 680 0
430 680 -431 0
-430 -680 252 0
-430 679 680 431 0
431 -681 -343 0
431 681 -432 0
-431 681 432 0
-431 -681 343 0
432 682 -433 0
432 -682 -396 0
-432 -682 396 0
-432 682 433 0
-433 642 683 0
-433 641 -683 0
433 -642 683 0
433 -641 -683 0
434 681 -356 0
434 -681 -360 0
-434 -681 360 0
-434 681 356 0
435 679 -680 -444 0
435 679 680 -436 0
-435 -679 0
-435 -680 444 0
-435 680 436 0
436 -681 -368 0
436 681 -437 0
-436 681 437 0
-436 -681 368 0
437 -682 -409 0
437 682 -438 0
-437 682 438 0
-437 -682 409 0
438 -683 -429 0
438 683 -439 0
-438 683 439 0
-438 -683 429 0
439 679 339 -440 0
439 -679 -325 339 0
-439 -339 0
-439 679 440 0
-439 -679 325 0
-440 680 441 0
-440 -680 311 0
440 -680 -311 0
440 680 -441 0
441 -681 -373 0
441 681 -442 0
-441 681 442 0
-441 -681 373 0
442 682 -443 0
442 -682 -417 0
-442 -682 417 0
-442 682 443 0
-443 643 683 0
-443 642 -683 0
443 -643 683 0
443 -642 -683 0
444 681 -376 0
444 -681 -380 0
-444 -681 380 0
-444 681 376 0
445 683 -446 0
445 -683 -457 0
-445 -683 457 0
-445 683 446 0
446 -679 45 0
446 45 -447 0
-446 -45 0
-446 679 447 0
447 680 -448 0
447 -680 -456 0
-447 -680 456 0
-447 680 448 0
448 -681 -389 0
448 681 -449 0
-448 681 449 0
-448 -681 389 0
449 -682 -428 0
449 682 -450 0
-449 682 450 0
-449 -682 428 0
450 -683 -439 0
450 683 -451 0
-450 683 451 0
-450 -683 439 0
451 -679 -163 339 0
451 679 339 -452 0
-451 -339 0
-451 679 452 0
-451 -679 163 0
-452 -680 353 0
-452 680 453 0
452 -680 -353 0
452 680 -453 0
-453 681 454 0
-453 -681 395 0
453 -681 -395 0
453 681 -454 0
454 682 -455 0
454 -682 -433 0
-454 -682 433 0
-454 682 455 0
-455 644 683 0
-455 643 -683 0
455 -644 683 0
455 -643 -683 0
456 681 -402 0
456 -681 -404 0
-456 -681 404 0
-456 681 402 0
457 -679 45 0
457 45 -458 0
-457 -45 0
-457 679 458 0
458 680 -459 0
458 -680 -467 0
-458 -680 467 0
-458 680 459 0
459 -681 -408 0
459 681 -460 0
-459 681 460 0
-459 -681 408 0
460 -682 -438 0
460 682 -461 0
-460 682 461 0
-460 -682 438 0
461 -683 -451 0
461 683 -462 0
-461 683 462 0
-461 -683 451 0
462 679 339 -463 0
462 -679 -48 339 0
-462 -339 0
-462 679 463 0
-462 -679 48 0
-463 -680 347 0
-463 680 464 0
463 -680 -347 0
463 680 -464 0
-464 681 465 0
-464 -681 416 0
464 -681 -416 0
464 681 -465 0
465 682 -466 0
465 -682 -443 0
-465 -682 443 0
-465 682 466 0
-466 645 683 0
-466 644 -683 0
466 -645 683 0
466 -644 -683 0
467 681 -419 0
467 -681 -421 0
-467 -681 421 0
-467 681 419 0
468 681 -469 0
468 -681 -512 0
-468 -681 512 0
-468 681 469 0
469 682 -470 0
469 -682 -491 0
-469 -682 491 0
-469 682 470 0
470 683 -471 0
470 -683 -481 0
-470 -683 481 0
-470 683 471 0
471 -679 45 0
471 45 -472 0
-471 -45 0
-471 679 472 0
472 -680 -335 0
472 680 -473 0
-472 680 473 0
-472 -680 335 0
473 -681 -427 0
473 681 -474 0
-473 681 474 0
-473 -681 427 0
474 -682 -450 0
474 682 -475 0
-474 682 475 0
-474 -682 450 0
475 -683 -462 0
475 683 -476 0
-475 683 476 0
-475 -683 462 0
476 679 339 -477 0
476 -679 -293 339 0
-476 -339 0
-476 679 477 0
-476 -679 293 0
-477 -680 342 0
-477 680 478 0
477 -680 -342 0
477 680 -478 0
-478 681 479 0
-478 -681 432 0
478 -681 -432 0
478 681 -479 0
479 682 -480 0
479 -682 -455 0
-479 -682 455 0
-479 682 480 0
-480 646 683 0
-480 645 -683 0
480 -646 683 0
480 -645 -683 0
481 -679 45 0
481 45 -482 0
-481 -45 0
-481 679 482 0
482 -680 -367 0
482 680 -483 0
-482 680 483 0
-482 -680 367 0
483 -681 -437 0
483 681 -484 0
-483 681 484 0
-483 -681 437 0
484 -682 -461 0
484 682 -485 0
-484 682 485 0
-484 -682 461 0
485 -683 -476 0
485 683 -486 0
-485 683 486 0
-485 -683 476 0
486 679 339 -487 0
486 -679 -215 339 0
-486 -339 0
-486 679 487 0
-486 -679 215 0
-487 -680 372 0
-487 680 488 0
487 -680 -372 0
487 680 -488 0
-488 681 489 0
-488 -681 442 0
488 -681 -442 0
488 681 -489 0
489 682 -490 0
489 -682 -466 0
-489 -682 466 0
-489 682 490 0
-490 647 683 0
-490 646 -683 0
490 -647 683 0
490 -646 -683 0
491 683 -492 0
491 -683 -502 0
-491 -683 502 0
-491 683 492 0
492 -679 45 0
492 45 -493 0
-492 -45 0
-492 679 493 0
493 -680 -388 0
493 680 -494 0
-493 680 494 0
-493 -680 388 0
494 -681 -449 0
494 681 -495 0
-494 681 495 0
-494 -681 449 0
495 -682 -475 0
495 682 -496 0
-495 682 496 0
-495 -682 475 0
496 -683 -486 0
496 683 -497 0
-496 683 497 0
-496 -683 486 0
497 679 339 -498 0
497 -679 -190 339 0
-497 -339 0
-497 679 498 0
-497 -679 190 0
-498 -680 394 0
-498 680 499 0
498 -680 -394 0
498 680 -499 0
-499 -681 454 0
-499 681 500 0
499 -681 -454 0
499 681 -500 0
-500 -682 480 0
-500 682 501 0
500 682 -501 0
500 -682 -480 0
-501 648 683 0
-501 647 -683 0
501 -648 683 0
501 -647 -683 0
502 -679 45 0
502 45 -503 0
-502 -45 0
-502 679 503 0
503 -680 -407 0
503 680 -504 0
-503 680 504 0
-503 -680 407 0
504 -681 -460 0
504 681 -505 0
-504 681 505 0
-504 -681 460 0
505 -682 -485 0
505 682 -506 0
-505 682 506 0
-505 -682 485 0
506 -683 -497 0
506 683 -507 0
-506 683 507 0
-506 -683 497 0
507 679 339 -508 0
507 -679 -277 339 0
-507 -339 0
-507 679 508 0
-507 -679 277 0
-508 -680 415 0
-508 680 509 0
508 -680 -415 0
508 680 -509 0
-509 681 -511 0
-509 -681 465 0
-509 681 510 0
509 -681 -465 0
509 681 -510 511 0
-510 648 682 -683 0
-510 649 682 683 0
510 -682 0
510 -649 683 0
510 -648 -683 0
511 646 -682 -683 0
511 647 -682 683 0
-511 682 0
-511 -647 683 0
-511 -646 -683 0
512 682 -513 0
-512 -682 0
-512 513 0
513 683 -514 0
513 -683 -524 0
-513 -683 524 0
-513 683 514 0
514 -679 45 0
514 45 -515 0
-514 -45 0
-514 679 515 0
515 -680 -426 0
515 680 -516 0
-515 680 516 0
-515 -680 426 0
516 -681 -474 0
516 681 -517 0
-516 681 517 0
-516 -681 474 0
517 -682 -496 0
517 682 -518 0
-517 -682 496 0
-517 682 518 0
-518 683 519 0
-518 -683 507 0
518 -683 -507 0
518 683 -519 0
519 679 339 -520 0
519 -679 -251 339 0
-519 -339 0
-519 679 520 0
-519 -679 251 0
-520 -680 431 0
-520 680 521 0
520 -680 -431 0
520 680 -521 0
-521 681 523 0
-521 -681 479 0
-521 681 -522 0
521 -681 -479 0
521 681 522 -523 0
522 647 -682 -683 0
522 648 -682 683 0
-522 682 0
-522 -648 683 0
-522 -647 -683 0
-523 649 682 -683 0
-523 650 682 683 0
523 -682 0
523 -650 683 0
523 -649 -683 0
524 -679 45 0
524 45 -525 0
-524 -45 0
-524 679 525 0
525 -680 -436 0
525 680 -526 0
-525 680 526 0
-525 -680 436 0
526 -681 -484 0
526 681 -527 0
-526 681 527 0
-526 -681 484 0
527 -682 -506 0
527 682 -528 0
-527 -682 506 0
-527 682 528 0
-528 -683 519 0
-528 683 529 0
-528 683 -339 0
528 -683 -519 0
528 683 339 -529 0
-529 -679 310 0
-529 679 530 0
529 -679 -310 0
529 679 -530 0
-530 680 531 0
-530 -680 441 0
530 -680 -441 0
530 680 -531 0
531 681 -532 0
531 -681 -489 0
531 681 -682 0
-531 -681 489 0
-531 681 682 532 0
532 -651 683 0
-532 651 0
-532 -683 0
533 681 -260 0
533 -681 -534 0
-533 -681 534 0
-533 681 260 0
534 682 -535 0
-534 -682 0
-534 535 0
535 683 -318 0
535 -683 -536 0
-535 -683 536 0
-535 683 318 0
536 680 110 -537 0
536 -680 -99 110 0
-536 -110 0
-536 680 537 0
-536 -680 99 0
-537 681 539 0
-537 -681 152 0
-537 681 -538 0
537 -681 -152 0
537 681 538 -539 0
538 645 -682 -683 0
538 647 -682 683 0
-538 682 0
-538 -647 683 0
-538 -645 -683 0
-539 649 682 -683 0
-539 651 682 683 0
539 -682 0
539 -651 683 0
539 -649 -683 0
540 680 -315 541 0
540 -680 541 -552 0
-540 -541 0
-540 -680 552 0
-540 680 315 0
541 680 -542 0
541 -680 -549 0
-541 -680 549 0
-541 680 542 0
542 681 -543 0
542 -681 -546 0
-542 -681 546 0
-542 681 543 0
543 682 -544 0
543 -682 -545 0
-543 -682 545 0
-543 682 544 0
544 683 -435 0
544 -683 -446 0
-544 -683 446 0
-544 683 435 0
545 683 -457 0
545 -683 -471 0
-545 -683 471 0
-545 683 457 0
546 682 -547 0
546 -682 -548 0
-546 -682 548 0
-546 682 547 0
547 683 -481 0
547 -683 -492 0
-547 -683 492 0
-547 683 481 0
548 683 -502 0
548 -683 -514 0
-548 -683 514 0
-548 683 502 0
549 681 -550 0
-549 -681 0
-549 550 0
550 682 -551 0
-550 -682 0
-550 551 0
551 683 -524 0
-551 -683 0
-551 524 0
552 681 -553 0
-552 -681 0
-552 553 0
553 682 -554 0
-553 -682 0
-553 554 0
554 683 -536 0
-554 -683 0
-554 536 0
-555 556 561 -571 0
-555 556 561 576 0
555 -556 0
555 -561 0
555 571 -576 0
556 680 -258 557 0
556 -680 557 -560 0
-556 -557 0
-556 -680 560 0
-556 680 258 0
557 680 -558 0
557 -680 -559 0
-557 -680 559 0
-557 680 558 0
558 681 -423 0
558 -681 -469 0
-558 -681 469 0
-558 681 423 0
559 681 -512 0
-559 -681 0
-559 512 0
560 681 -534 0
-560 -681 0
-560 534 0
-561 562 569 0
-561 -680 562 0
-561 562 -567 0
561 -562 0
561 680 567 -569 0
562 680 563 -565 0
-562 565 0
-562 -563 0
-562 -680 0
563 681 -564 0
-563 -681 0
-563 564 0
564 682 -491 0
564 -682 -513 0
-564 -682 513 0
-564 682 491 0
565 681 -566 0
-565 -681 0
-565 566 0
566 682 -261 0
566 -682 -535 0
-566 -682 535 0
-566 682 261 0
567 681 -568 0
-567 -681 0
-567 568 0
568 682 -548 0
568 -682 -551 0
-568 -682 551 0
-568 682 548 0
569 681 -570 0
-569 -681 0
-569 570 0
570 682 -317 0
570 -682 -554 0
-570 -682 554 0
-570 682 317 0
571 -680 -567 0
571 680 -572 0
-571 680 572 0
-571 -680 567 0
572 681 -573 0
572 -681 -575 0
-572 -681 575 0
-572 681 573 0
573 -682 -544 0
573 682 -574 0
-573 682 574 0
-573 -682 544 0
574 683 -406 0
574 -683 -425 0
-574 -683 425 0
-574 683 406 0
575 682 -545 0
575 -682 -547 0
-575 -682 547 0
-575 682 545 0
576 680 -282 0
576 -680 -569 0
-576 -680 569 0
-576 680 282 0
-577 578 583 598 600 0
577 -578 0
577 -600 0
577 -598 0
577 -583 0
578 680 -196 579 0
578 -680 -565 579 0
-578 -579 0
-578 -680 565 0
-578 680 196 0
579 -680 -563 0
579 680 -580 0
-579 680 580 0
-579 -680 563 0
580 681 -581 0
580 -681 -582 0
-580 -681 582 0
-580 681 581 0
581 682 -386 0
581 -682 -424 0
-581 -682 424 0
-581 682 386 0
582 682 -445 0
582 -682 -470 0
-582 -682 470 0
-582 682 445 0
583 680 -179 584 0
583 -680 584 -597 0
-583 -584 0
-583 -680 597 0
-583 680 179 0
584 680 -585 0
584 -680 -596 0
-584 -680 596 0
-584 680 585 0
585 -681 -581 0
585 681 -586 0
-585 681 586 0
-585 -681 581 0
586 -682 -333 0
586 682 -587 0
-586 682 587 0
-586 -682 333 0
587 -683 -592 0
587 683 45 -588 0
-587 -683 592 0
-587 683 -45 0
-587 683 588 0
-588 679 -680 589 0
-588 679 680 456 0
588 -679 0
588 -680 -589 0
588 680 -456 0
589 681 -405 0
589 -681 -590 0
-589 -681 590 0
-589 681 405 0
590 682 -365 0
590 -682 -591 0
-590 -682 591 0
-590 682 365 0
591 -683 -5 0
591 683 -230 0
-591 683 230 0
-591 -683 5 0
592 679 -680 -593 0
592 679 680 -467 0
-592 -679 0
-592 -680 593 0
-592 680 467 0
593 681 -422 0
593 -681 -594 0
-593 -681 594 0
-593 681 422 0
594 682 -385 0
594 -682 -595 0
-594 -682 595 0
-594 682 385 0
595 -683 -230 0
595 683 -287 0
-595 683 287 0
-595 -683 230 0
596 -681 -564 0
596 681 -582 0
-596 681 582 0
-596 -681 564 0
597 681 -197 0
597 -681 -566 0
-597 -681 566 0
-597 681 197 0
-598 560 599 0
-598 -680 599 0
-598 -559 599 0
598 -599 0
598 680 559 -560 0
599 680 549 -552 0
-599 552 0
-599 -549 0
-599 -680 0
600 680 -223 601 0
600 -680 601 -606 0
-600 -601 0
-600 -680 606 0
-600 680 223 0
601 680 -602 0
601 -680 -605 0
-601 -680 605 0
-601 680 602 0
602 -681 -543 0
602 681 -603 0
-602 681 603 0
-602 -681 543 0
603 -682 -574 0
603 682 -604 0
-603 682 604 0
-603 -682 574 0
604 683 -366 0
604 -683 -387 0
-604 -683 387 0
-604 683 366 0
605 681 -546 0
605 -681 -550 0
-605 -681 550 0
-605 681 546 0
606 681 -316 0
606 -681 -553 0
-606 -681 553 0
-606 681 316 0
607 680 605 -606 0
-607 606 0
-607 -605 0
-607 -680 0
-608 609 611 0
-608 -680 611 0
-608 -610 611 0
608 -611 0
608 680 -609 610 0
609 681 -283 0
609 -681 -570 0
-609 -681 570 0
-609 681 283 0
610 -681 -568 0
610 681 -575 0
-610 681 575 0
-610 -681 568 0
611 680 -115 612 0
611 -680 -609 612 0
-611 -612 0
-611 -680 609 0
-611 680 115 0
612 -680 -610 0
612 680 -613 0
-612 680 613 0
-612 -680 610 0
613 -681 -573 0
613 681 -614 0
-613 681 614 0
-613 -681 573 0
614 -682 -604 0
614 682 -615 0
-614 682 615 0
-614 -682 604 0
615 -683 -334 0
615 683 -592 0
-615 683 592 0
-615 -683 334 0
-616 597 617 0
-616 -680 617 0
-616 -596 617 0
616 -617 0
616 680 596 -597 0
617 680 468 -533 618 0
-617 -680 0
-617 -618 0
-617 533 0
-617 -468 0
-618 656 37 46 619 0
618 -656 0
618 -619 0
618 -46 0
618 -37 0
-619 22 41 0
619 -22 0
619 -41 0
-684 0
2 0

